1636
48 88 14 10 37 16 85 12 87 22 73 43 70 47 98 62 24 15 97 89 46 78 49 33 58 9 11 90 1 38 59 44 7 53 75 5 94 35 95 96 29 4 20 68 6 76 25 27 61 34 31 60 56 63 66 92 26 50 36 72 30 80 39 3 8 86 54 74 91 17 99 21 51 45 82 2 41 19 23 18 69 28 40 71 84 81 65 42 79 93 83 67 64 57 55 13 32 77 52 
